data/solutions/recovery/degenerate/moderate/flexible/degenerate_moderate_instance20/27.sol
Elapsed time: 6.93
Upper bound: 154516559.0
Planning weighted value: 2216155070.0
C[0]=154516559.0
C[1]=154256715.0
C[2]=154090180.0
C[3]=154086412.0
y[0]=0
y[1]=1
y[2]=0
y[3]=2
y[4]=1
y[5]=3
y[6]=1
y[7]=0
y[8]=3
y[9]=3
y[10]=2
y[11]=3
y[12]=2
y[13]=3
y[14]=2
y[15]=0
y[16]=2
y[17]=1
y[18]=3
y[19]=0
y[20]=1
y[21]=0
y[22]=1
y[23]=3
y[24]=0
y[25]=0
y[26]=0
y[27]=2
y[28]=1
y[29]=2
y[30]=1
y[31]=2
y[32]=3
y[33]=0
y[34]=2
y[35]=1
